10 
16 
5 
9 
5 
12 
8 
9 
5 
3 
10 
9 
8 
12 
8 
8 
12 
10 
11 
5 
5 
6 
11 
7 
4 
6 
7 
4 
8 
8 
10 
15 
7 
9 
10 
9 
5 
10 
7 
5 
9 
9 
10 
5 
3 
10 
6 
11 
9 
7 
9 
12 
8 
11 
10 
9 
7 
6 
4 
7 
7 
6 
12 
6 
9 
8 
13 
6 
7 
8 
5 
12 
10 
8 
10 
9 
8 
5 
10 
9 
6 
7 
10 
7 
9 
8 
9 
5 
5 
10 
8 
8 
10 
8 
6 
7 
7 
9 
7 
6 
